c generated by sgen
p cnf 53 116
-2 -3 -4 0
-1 -3 -4 0
-1 -2 -4 0
-1 -2 -3 0
-6 -7 -8 0
-5 -7 -8 0
-5 -6 -8 0
-5 -6 -7 0
-10 -11 -12 0
-9 -11 -12 0
-9 -10 -12 0
-9 -10 -11 0
-14 -15 -16 0
-13 -15 -16 0
-13 -14 -16 0
-13 -14 -15 0
-18 -19 -20 0
-17 -19 -20 0
-17 -18 -20 0
-17 -18 -19 0
-22 -23 -24 0
-21 -23 -24 0
-21 -22 -24 0
-21 -22 -23 0
-26 -27 -28 0
-25 -27 -28 0
-25 -26 -28 0
-25 -26 -27 0
-30 -31 -32 0
-29 -31 -32 0
-29 -30 -32 0
-29 -30 -31 0
-34 -35 -36 0
-33 -35 -36 0
-33 -34 -36 0
-33 -34 -35 0
-38 -39 -40 0
-37 -39 -40 0
-37 -38 -40 0
-37 -38 -39 0
-42 -43 -44 0
-41 -43 -44 0
-41 -42 -44 0
-41 -42 -43 0
-46 -47 -48 0
-45 -47 -48 0
-45 -46 -48 0
-45 -46 -47 0
-49 -50 -51 0
-49 -50 -52 0
-49 -50 -53 0
-49 -51 -52 0
-49 -51 -53 0
-49 -52 -53 0
-50 -51 -52 0
-50 -51 -53 0
-50 -52 -53 0
-51 -52 -53 0
3 52 25 0
42 52 25 0
42 3 25 0
42 3 52 0
51 2 36 0
20 2 36 0
20 51 36 0
20 51 2 0
26 11 17 0
23 11 17 0
23 26 17 0
23 26 11 0
35 22 38 0
41 22 38 0
41 35 38 0
41 35 22 0
33 7 28 0
30 7 28 0
30 33 28 0
30 33 7 0
13 49 32 0
21 49 32 0
21 13 32 0
21 13 49 0
8 24 48 0
4 24 48 0
4 8 48 0
4 8 24 0
5 15 43 0
9 15 43 0
9 5 43 0
9 5 15 0
45 19 44 0
29 19 44 0
29 45 44 0
29 45 19 0
53 34 46 0
10 34 46 0
10 53 46 0
10 53 34 0
39 12 31 0
1 12 31 0
1 39 31 0
1 39 12 0
47 37 27 0
16 37 27 0
16 47 27 0
16 47 37 0
18 40 6 0
18 40 50 0
18 40 14 0
18 6 50 0
18 6 14 0
18 50 14 0
40 6 50 0
40 6 14 0
40 50 14 0
6 50 14 0
